COLUMNS

passenger_count
pickup_ID
dropoff_ID
request_time_sec
pickup_district
dropoff_district
LDuals
IDuals
vehicle_ID
pick_position
drop_position

REQUESTS_INFO
1      969       938       29316     290       291       171       171       10        1         3         
1      969       759       29363     290       131       124       124       10        2         4         
2      1171      189       29301     192       286       186       186       32        1         3         
4      1087      651       29117     291       189       434       434       35        1         2         
1      179       295       29341     178       87        150       150       57        1         2         
1      278       488       29295     87        199       225       225       59        1         2         
1      929       905       29341     290       290       190       190       71        1         3         
3      949       79        29344     290       98        167       167       97        1         3         
1      981       599       29361     291       280       166       166       105       1         3         
3      270       527       29338     127       52        202       202       110       1         3         
2      183       502       29341     178       52        142       142       133       1         2         
1      326       273       29285     299       206       246       246       152       1         3         
3      270       527       29338     127       52        202       202       155       1         3         
1      747       534       29312     290       199       195       195       164       1         2         
1      984       720       29083     291       290       492       492       175       1         3         
1      545       115       29350     52        9         203       203       189       1         3         
1      939       760       29309     291       291       239       239       193       1         2         
2      461       580       29360     189       189       142       142       216       1         2         
1      882       673       29265     290       189       210       210       224       1         4         
2      312       454       29356     87        52        146       146       230       1         2         
2      861       559       29328     290       189       189       189       292       1         3         
1      598       627       29344     189       189       146       146       318       1         2         
1      1043      852       29304     291       291       229       229       322       1         4         
1      1043      982       29250     291       291       283       283       322       2         3         
1      393       304       29281     52        299       184       184       328       1         3         
3      571       600       29342     52        280       155       155       332       1         3         
1      484       533       29340     189       199       131       131       386       1         2         
1      272       485       29364     127       189       198       198       392       1         3         
1      1075      647       29352     84        280       161       161       402       1         2         
3      940       859       29351     291       290       221       221       462       1         2         
3      291       486       29358     87        199       216       216       528       1         2         
1      758       413       29332     131       52        151       151       557       1         3         
1      795       1200      29233     290       84        253       253       584       1         3         
1      945       1032      29353     50        84        130       130       606       1         2         
1      790       421       29280     290       168       186       186       629       1         3         
1      349       671       29356     127       280       146       146       654       1         3         
1      679       1227      29367     290       192       105       105       677       1         2         
3      873       651       29341     291       189       155       155       687       1         3         
2      983       990       29101     291       290       446       446       695       1         2         
3      455       573       29368     52        189       166       166       704       1         2         
1      274       48        29329     87        98        171       171       708       1         2         
3      983       685       29349     291       999       198       198       729       1         2         
1      1045      1149      29360     291       291       174       174       802       1         2         
3      748       535       29340     290       189       149       149       808       1         2         
3      234       397       29363     87        168       136       136       873       1         2         
1      850       718       29366     291       189       126       126       878       1         2         
3      725       601       29351     290       189       141       141       891       1         3         
1      1149      1332      29232     291       999       291       291       902       1         3         
1      365       691       29290     299       131       220       220       909       1         2         
1      864       609       29347     290       189       179       179       939       1         3         
1      479       373       29369     52        119       192       192       942       1         2         
2      348       575       29329     299       189       214       214       945       1         2         
1      573       532       29350     189       199       163       163       952       1         2         
1      767       371       29345     290       52        107       107       953       1         4         
1      1022      170       29286     291       286       219       219       983       1         3         
2      433       531       29355     52        189       170       170       993       1         2         
2      837       417       29311     290       100       191       191       1013      1         3         
2      571       600       29342     52        280       112       112       1049      1         2         
1      1091      1169      29291     291       291       254       254       1062      1         2         
1      875       577       29303     291       189       218       218       1071      1         3         
2      841       747       29227     290       290       292       292       1122      1         2         
3      410       627       29340     52        189       188       188       1137      1         2         
3      410       627       29340     52        189       188       188       1139      1         3         
1      1065      724       29337     291       290       160       160       1184      1         4         
1      860       693       29341     290       280       157       157       1193      1         3         
1      285       645       29342     299       280       150       150       1238      1         2         
1      885       62        29368     290       98        131       131       1262      1         3         
3      960       1149      29255     291       291       268       268       1275      1         2         
1      217       528       29314     87        52        195       195       1299      1         4         
1      352       697       29350     119       189       159       159       1305      1         3         
1      893       937       29354     291       291       120       120       1308      1         2         
3      842       378       29332     290       168       198       198       1310      1         2         
1      712       568       29342     131       52        147       147       1329      1         3         
2      962       824       29359     291       291       196       196       1331      1         2         
1      218       116       29362     87        9         105       105       1348      1         4         
1      875       963       29323     291       50        198       198       1360      1         2         
1      1069      805       29328     291       291       272       272       1402      1         3         
3      945       629       29296     50        189       193       193       1438      1         3         
2      858       673       29257     290       189       244       244       1496      1         2         
1      232       311       29370     266       87        0         0         0         0         0         
1      602       393       29370     189       52        0         0         0         0         0         
1      534       467       29370     199       999       0         0         0         0         0         
1      745       676       29370     290       189       0         0         0         0         0         
1      309       325       29370     127       299       0         0         0         0         0         
1      442       558       29370     168       189       0         0         0         0         0         
1      33        782       29370     98        291       0         0         0         0         0         
3      906       662       29370     290       131       0         0         0         0         0         
3      906       662       29370     290       131       0         0         0         0         0         
1      990       768       29371     290       290       0         0         0         0         0         
1      1308      1518      29371     129       296       0         0         0         0         0         
1      559       577       29371     189       189       0         0         0         0         0         
3      749       629       29371     290       189       0         0         0         0         0         
1      578       858       29371     189       290       0         0         0         0         0         
1      247       370       29371     266       52        0         0         0         0         0         
3      749       629       29371     290       189       0         0         0         0         0         
1      603       63        29371     189       98        0         0         0         0         0         
1      479       606       29371     52        189       0         0         0         0         0         
1      189       575       29371     286       189       0         0         0         0         0         
1      398       575       29371     168       189       0         0         0         0         0         
2      672       460       29371     189       189       0         0         0         0         0         
3      815       581       29372     290       189       0         0         0         0         0         
2      815       581       29372     290       189       0         0         0         0         0         
1      325       368       29372     299       299       0         0         0         0         0         
2      1193      1150      29373     129       291       0         0         0         0         0         
1      115       693       29373     9         280       0         0         0         0         0         
3      630       814       29373     189       290       0         0         0         0         0         
1      732       701       29373     131       290       0         0         0         0         0         
2      646       116       29374     280       9         0         0         0         0         0         
1      287       21        29374     299       98        0         0         0         0         0         
1      780       871       29374     291       291       0         0         0         0         0         
1      829       980       29374     50        291       0         0         0         0         0         
2      1078      1218      29374     84        84        0         0         0         0         0         
1      938       628       29374     291       189       0         0         0         0         0         
1      969       604       29374     290       189       0         0         0         0         0         
1      896       599       29374     291       280       0         0         0         0         0         
3      646       116       29374     280       9         0         0         0         0         0         
2      393       310       29375     52        127       0         0         0         0         0         
2      969       671       29375     290       280       0         0         0         0         0         
1      838       698       29375     290       189       0         0         0         0         0         
2      330       651       29375     127       189       0         0         0         0         0         
1      1225      980       29375     192       291       0         0         0         0         0         
2      654       464       29375     189       168       0         0         0         0         0         
1      984       675       29375     291       189       0         0         0         0         0         
1      549       915       29376     52        291       0         0         0         0         0         
1      134       304       29376     9         299       0         0         0         0         0         
1      527       397       29376     52        168       0         0         0         0         0         
1      22        555       29376     98        199       0         0         0         0         0         
1      858       951       29377     290       290       0         0         0         0         0         
1      325       333       29377     299       119       0         0         0         0         0         
3      527       727       29377     52        290       0         0         0         0         0         
2      894       628       29377     291       189       0         0         0         0         0         
1      508       604       29377     199       189       0         0         0         0         0         
1      871       914       29378     291       291       0         0         0         0         0         
1      852       743       29378     291       290       0         0         0         0         0         
2      1026      1169      29378     291       291       0         0         0         0         0         
1      172       212       29378     286       266       0         0         0         0         0         
1      771       606       29378     290       189       0         0         0         0         0         
1      397       555       29378     168       199       0         0         0         0         0         
3      680       306       29378     290       299       0         0         0         0         0         
1      837       606       29378     290       189       0         0         0         0         0         
1      969       134       29378     290       9         0         0         0         0         0         
1      629       995       29378     189       84        0         0         0         0         0         
2      837       544       29378     290       52        0         0         0         0         0         
3      837       544       29378     290       52        0         0         0         0         0         
2      680       306       29378     290       299       0         0         0         0         0         
2      156       100       29379     286       57        0         0         0         0         0         
1      531       604       29379     189       189       0         0         0         0         0         
3      306       603       29379     299       189       0         0         0         0         0         
3      306       603       29379     299       189       0         0         0         0         0         
3      481       608       29379     189       189       0         0         0         0         0         
2      481       608       29379     189       189       0         0         0         0         0         
1      507       465       29380     189       199       0         0         0         0         0         
1      646       510       29380     280       199       0         0         0         0         0         
1      607       463       29380     189       168       0         0         0         0         0         
2      1475      893       29380     296       291       0         0         0         0         0         
4      654       577       29381     189       189       0         0         0         0         0         
1      212       580       29381     266       189       0         0         0         0         0         
1      366       649       29381     299       189       0         0         0         0         0         
1      356       544       29381     119       52        0         0         0         0         0         
1      1088      1024      29381     291       291       0         0         0         0         0         
2      699       748       29381     290       290       0         0         0         0         0         
1      559       722       29381     189       290       0         0         0         0         0         
1      529       650       29381     189       189       0         0         0         0         0         
1      969       604       29381     290       189       0         0         0         0         0         
1      523       61        29382     52        98        0         0         0         0         0         
1      170       578       29382     286       189       0         0         0         0         0         
2      712       687       29382     131       131       0         0         0         0         0         
3      712       687       29382     131       131       0         0         0         0         0         
1      908       48        29383     290       98        0         0         0         0         0         
3      947       1005      29383     290       50        0         0         0         0         0         
2      351       307       29383     52        127       0         0         0         0         0         
3      351       307       29383     52        127       0         0         0         0         0         
1      735       668       29383     131       280       0         0         0         0         0         
1      284       46        29384     299       98        0         0         0         0         0         
3      605       534       29384     189       199       0         0         0         0         0         
1      580       646       29384     189       280       0         0         0         0         0         
1      642       827       29384     131       291       0         0         0         0         0         
1      250       580       29385     127       189       0         0         0         0         0         
3      171       333       29385     286       119       0         0         0         0         0         
2      464       551       29385     168       189       0         0         0         0         0         
1      375       155       29385     119       286       0         0         0         0         0         
2      1053      992       29385     84        290       0         0         0         0         0         
3      805       935       29386     291       291       0         0         0         0         0         
1      529       601       29386     189       189       0         0         0         0         0         
2      746       558       29386     290       189       0         0         0         0         0         
1      904       1025      29387     290       291       0         0         0         0         0         
1      1192      1136      29387     129       129       0         0         0         0         0         
1      556       62        29387     199       98        0         0         0         0         0         
1      813       926       29387     290       290       0         0         0         0         0         
1      293       671       29387     87        280       0         0         0         0         0         
1      373       533       29387     119       199       0         0         0         0         0         
1      903       1160      29387     290       84        0         0         0         0         0         
1      485       440       29387     189       168       0         0         0         0         0         
1      803       860       29388     291       290       0         0         0         0         0         
1      31        117       29388     9         286       0         0         0         0         0         
1      1172      1075      29388     129       84        0         0         0         0         0         
2      812       903       29388     290       290       0         0         0         0         0         
1      549       697       29388     52        189       0         0         0         0         0         
1      941       738       29388     50        189       0         0         0         0         0         
1      466       653       29388     199       189       0         0         0         0         0         
1      528       532       29388     52        199       0         0         0         0         0         
1      549       738       29388     52        189       0         0         0         0         0         
1      882       460       29389     290       189       0         0         0         0         0         
3      837       905       29389     290       290       0         0         0         0         0         
3      842       594       29389     290       131       0         0         0         0         0         
2      837       905       29389     290       290       0         0         0         0         0         
1      434       191       29390     52        266       0         0         0         0         0         
1      959       430       29390     291       52        0         0         0         0         0         
3      479       48        29391     52        98        0         0         0         0         0         
1      700       748       29391     290       290       0         0         0         0         0         
1      888       630       29391     290       189       0         0         0         0         0         
1      604       718       29391     189       189       0         0         0         0         0         
3      578       527       29391     189       52        0         0         0         0         0         
2      578       527       29391     189       52        0         0         0         0         0         
3      479       48        29391     52        98        0         0         0         0         0         
1      971       399       29391     290       168       0         0         0         0         0         
1      1168      574       29391     291       189       0         0         0         0         0         
2      1199      1179      29392     84        84        0         0         0         0         0         
2      118       293       29392     286       87        0         0         0         0         0         
1      371       529       29392     52        189       0         0         0         0         0         
1      482       375       29392     189       119       0         0         0         0         0         
1      291       435       29392     87        52        0         0         0         0         0         
1      905       940       29392     290       291       0         0         0         0         0         
1      442       116       29393     168       9         0         0         0         0         0         
1      749       535       29393     290       189       0         0         0         0         0         
1      499       330       29393     52        127       0         0         0         0         0         
1      510       191       29394     199       266       0         0         0         0         0         
2      903       991       29394     290       290       0         0         0         0         0         
3      458       325       29394     52        299       0         0         0         0         0         
1      903       747       29394     290       290       0         0         0         0         0         
3      749       651       29395     290       189       0         0         0         0         0         
3      749       651       29395     290       189       0         0         0         0         0         
2      864       773       29395     290       290       0         0         0         0         0         
1      269       138       29395     127       57        0         0         0         0         0         
1      925       992       29395     290       290       0         0         0         0         0         
1      1009      649       29395     50        189       0         0         0         0         0         
2      1148      1227      29396     291       192       0         0         0         0         0         
1      972       724       29396     290       290       0         0         0         0         0         
2      509       375       29396     199       119       0         0         0         0         0         
1      771       695       29396     290       189       0         0         0         0         0         
3      794       439       29396     290       189       0         0         0         0         0         
1      738       604       29397     189       189       0         0         0         0         0         
2      649       638       29397     189       131       0         0         0         0         0         
2      1192      1224      29397     129       192       0         0         0         0         0         
1      527       418       29397     52        168       0         0         0         0         0         
1      945       1025      29397     50        291       0         0         0         0         0         
3      551       512       29398     189       199       0         0         0         0         0         
1      603       695       29398     189       189       0         0         0         0         0         
1      941       968       29398     50        290       0         0         0         0         0         
1      191       304       29398     266       299       0         0         0         0         0         
1      277       550       29398     87        189       0         0         0         0         0         
1      598       650       29399     189       189       0         0         0         0         0         
1      630       579       29399     189       189       0         0         0         0         0         
1      154       304       29399     286       299       0         0         0         0         0         
